c FILE: i160-203

c SOURCE: From steinlib

c DESCRIPTION: Steinlib instance with 160 nodes and 240 edges.

p edge 160 240
e 1 23
e 1 62
e 1 77
e 1 82
e 1 100
e 1 116
e 1 119
e 1 123
e 1 146
e 1 153
e 1 155
e 2 93
e 3 7
e 3 17
e 3 143
e 4 54
e 4 116
e 5 8
e 5 73
e 6 13
e 6 21
e 6 71
e 7 142
e 8 18
e 8 34
e 8 84
e 8 101
e 9 27
e 9 41
e 9 108
e 10 50
e 10 72
e 10 125
e 10 141
e 11 32
e 11 123
e 12 45
e 12 58
e 12 100
e 12 118
e 12 152
e 13 46
e 13 104
e 13 106
e 14 38
e 15 83
e 15 115
e 16 21
e 16 154
e 17 40
e 17 95
e 17 97
e 17 123
e 19 42
e 20 128
e 20 138
e 21 33
e 21 45
e 21 70
e 21 115
e 22 86
e 22 92
e 23 25
e 23 71
e 23 131
e 23 136
e 24 93
e 24 108
e 24 124
e 24 153
e 25 29
e 25 160
e 26 129
e 26 142
e 27 136
e 28 42
e 28 54
e 28 138
e 29 130
e 30 138
e 30 142
e 31 55
e 31 102
e 32 50
e 32 158
e 33 73
e 33 117
e 34 47
e 34 157
e 35 97
e 35 140
e 36 56
e 36 69
e 36 159
e 37 56
e 38 42
e 38 55
e 38 90
e 39 44
e 39 83
e 40 79
e 40 132
e 41 64
e 41 81
e 41 122
e 42 43
e 42 74
e 42 85
e 42 99
e 43 70
e 43 133
e 43 150
e 45 158
e 46 47
e 46 73
e 47 72
e 47 89
e 47 116
e 47 147
e 48 152
e 49 141
e 50 60
e 50 104
e 50 117
e 50 129
e 50 153
e 51 94
e 51 130
e 52 89
e 52 103
e 52 136
e 53 54
e 53 61
e 53 85
e 53 120
e 54 127
e 54 144
e 55 81
e 55 110
e 55 117
e 55 130
e 55 145
e 56 78
e 56 114
e 56 116
e 57 62
e 57 83
e 57 129
e 58 74
e 58 143
e 59 91
e 60 112
e 61 111
e 62 63
e 64 134
e 65 101
e 66 126
e 66 159
e 67 124
e 67 157
e 68 69
e 69 71
e 69 77
e 70 73
e 70 89
e 70 118
e 71 119
e 72 154
e 75 79
e 76 112
e 78 83
e 78 121
e 78 140
e 80 132
e 81 127
e 82 94
e 82 160
e 83 116
e 83 152
e 84 157
e 85 152
e 86 105
e 86 109
e 86 125
e 87 154
e 88 96
e 88 112
e 88 134
e 88 151
e 89 126
e 89 160
e 91 121
e 92 94
e 92 112
e 92 120
e 92 156
e 93 94
e 94 125
e 94 129
e 96 119
e 98 141
e 99 131
e 99 141
e 101 113
e 101 123
e 101 129
e 101 136
e 102 109
e 103 128
e 104 111
e 105 157
e 107 126
e 107 132
e 109 143
e 109 153
e 111 113
e 111 122
e 111 131
e 114 138
e 119 159
e 122 124
e 123 127
e 123 151
e 124 128
e 125 130
e 125 149
e 128 148
e 128 155
e 129 131
e 129 135
e 134 147
e 134 157
e 136 139
e 136 151
e 136 157
e 137 152
e 144 145
e 144 153
e 152 158
e 155 157
